solution status: optimal solution found
objective value:                                    0
$_21__6_y                                          25 	(obj:0)
$_21__6_z                                          19 	(obj:0)
$_18__6_y                                          21 	(obj:0)
$_18__6_z                                          22 	(obj:0)
$_46_y                                             23 	(obj:0)
$_46_z                                             22 	(obj:0)
$_151_y                                            24 	(obj:0)
$_151_z                                            22 	(obj:0)
$_24__6_y                                          25 	(obj:0)
$_24__6_z                                          22 	(obj:0)
$_22__6_y                                          22 	(obj:0)
$_22__6_z                                          25 	(obj:0)
$_68_y                                             18 	(obj:0)
$_68_z                                             18 	(obj:0)
$_274_y                                            18 	(obj:0)
$_274_z                                            17 	(obj:0)
$_20__6_y                                          25 	(obj:0)
$_20__6_z                                          20 	(obj:0)
$_23__6_y                                          25 	(obj:0)
$_23__6_z                                          25 	(obj:0)
$_233_y                                            20 	(obj:0)
$_233_z                                            17 	(obj:0)
$_19__6_y                                          25 	(obj:0)
$_19__6_z                                          24 	(obj:0)
$_25__6_y                                          25 	(obj:0)
$_25__6_z                                          21 	(obj:0)
$_192_y                                            22 	(obj:0)
$_192_z                                            21 	(obj:0)
